c description: Graph pigeonhole principle formula on fast_gnp_random_graph(20,10,0.5)
c generator: CNFgen (0.9.0)
c copyright: (C) 2012-2020 Massimo Lauria <massimo.lauria@uniroma1.it>
c url: https://massimolauria.net/cnfgen
c
p cnf 105 544
1 2 3 4 5 0
6 7 8 9 10 0
11 12 13 14 15 0
16 17 18 19 0
20 21 22 23 0
24 25 26 27 28 29 0
30 31 32 0
33 34 35 36 0
37 38 39 40 41 0
42 43 44 45 46 47 48 0
49 50 51 52 53 0
54 55 56 57 58 0
59 60 61 62 63 64 65 0
66 67 68 69 70 71 72 73 0
74 75 76 77 78 79 80 81 0
82 83 84 85 0
86 87 88 89 90 91 0
92 93 94 95 0
96 97 98 99 100 0
101 102 103 104 105 0
-1 -6 0
-1 -11 0
-1 -33 0
-1 -37 0
-1 -42 0
-1 -54 0
-1 -59 0
-1 -66 0
-1 -74 0
-1 -86 0
-1 -92 0
-1 -96 0
-1 -101 0
-6 -11 0
-6 -33 0
-6 -37 0
-6 -42 0
-6 -54 0
-6 -59 0
-6 -66 0
-6 -74 0
-6 -86 0
-6 -92 0
-6 -96 0
-6 -101 0
-11 -33 0
-11 -37 0
-11 -42 0
-11 -54 0
-11 -59 0
-11 -66 0
-11 -74 0
-11 -86 0
-11 -92 0
-11 -96 0
-11 -101 0
-33 -37 0
-33 -42 0
-33 -54 0
-33 -59 0
-33 -66 0
-33 -74 0
-33 -86 0
-33 -92 0
-33 -96 0
-33 -101 0
-37 -42 0
-37 -54 0
-37 -59 0
-37 -66 0
-37 -74 0
-37 -86 0
-37 -92 0
-37 -96 0
-37 -101 0
-42 -54 0
-42 -59 0
-42 -66 0
-42 -74 0
-42 -86 0
-42 -92 0
-42 -96 0
-42 -101 0
-54 -59 0
-54 -66 0
-54 -74 0
-54 -86 0
-54 -92 0
-54 -96 0
-54 -101 0
-59 -66 0
-59 -74 0
-59 -86 0
-59 -92 0
-59 -96 0
-59 -101 0
-66 -74 0
-66 -86 0
-66 -92 0
-66 -96 0
-66 -101 0
-74 -86 0
-74 -92 0
-74 -96 0
-74 -101 0
-86 -92 0
-86 -96 0
-86 -101 0
-92 -96 0
-92 -101 0
-96 -101 0
-7 -24 0
-7 -34 0
-7 -43 0
-7 -49 0
-7 -60 0
-7 -67 0
-7 -75 0
-7 -87 0
-7 -97 0
-24 -34 0
-24 -43 0
-24 -49 0
-24 -60 0
-24 -67 0
-24 -75 0
-24 -87 0
-24 -97 0
-34 -43 0
-34 -49 0
-34 -60 0
-34 -67 0
-34 -75 0
-34 -87 0
-34 -97 0
-43 -49 0
-43 -60 0
-43 -67 0
-43 -75 0
-43 -87 0
-43 -97 0
-49 -60 0
-49 -67 0
-49 -75 0
-49 -87 0
-49 -97 0
-60 -67 0
-60 -75 0
-60 -87 0
-60 -97 0
-67 -75 0
-67 -87 0
-67 -97 0
-75 -87 0
-75 -97 0
-87 -97 0
-12 -16 0
-12 -20 0
-12 -25 0
-12 -38 0
-12 -44 0
-12 -61 0
-12 -68 0
-12 -76 0
-12 -93 0
-12 -98 0
-12 -102 0
-16 -20 0
-16 -25 0
-16 -38 0
-16 -44 0
-16 -61 0
-16 -68 0
-16 -76 0
-16 -93 0
-16 -98 0
-16 -102 0
-20 -25 0
-20 -38 0
-20 -44 0
-20 -61 0
-20 -68 0
-20 -76 0
-20 -93 0
-20 -98 0
-20 -102 0
-25 -38 0
-25 -44 0
-25 -61 0
-25 -68 0
-25 -76 0
-25 -93 0
-25 -98 0
-25 -102 0
-38 -44 0
-38 -61 0
-38 -68 0
-38 -76 0
-38 -93 0
-38 -98 0
-38 -102 0
-44 -61 0
-44 -68 0
-44 -76 0
-44 -93 0
-44 -98 0
-44 -102 0
-61 -68 0
-61 -76 0
-61 -93 0
-61 -98 0
-61 -102 0
-68 -76 0
-68 -93 0
-68 -98 0
-68 -102 0
-76 -93 0
-76 -98 0
-76 -102 0
-93 -98 0
-93 -102 0
-98 -102 0
-2 -8 0
-2 -26 0
-2 -45 0
-2 -50 0
-2 -55 0
-2 -82 0
-2 -94 0
-2 -99 0
-2 -103 0
-8 -26 0
-8 -45 0
-8 -50 0
-8 -55 0
-8 -82 0
-8 -94 0
-8 -99 0
-8 -103 0
-26 -45 0
-26 -50 0
-26 -55 0
-26 -82 0
-26 -94 0
-26 -99 0
-26 -103 0
-45 -50 0
-45 -55 0
-45 -82 0
-45 -94 0
-45 -99 0
-45 -103 0
-50 -55 0
-50 -82 0
-50 -94 0
-50 -99 0
-50 -103 0
-55 -82 0
-55 -94 0
-55 -99 0
-55 -103 0
-82 -94 0
-82 -99 0
-82 -103 0
-94 -99 0
-94 -103 0
-99 -103 0
-9 -30 0
-9 -56 0
-9 -62 0
-9 -77 0
-9 -88 0
-30 -56 0
-30 -62 0
-30 -77 0
-30 -88 0
-56 -62 0
-56 -77 0
-56 -88 0
-62 -77 0
-62 -88 0
-77 -88 0
-3 -17 0
-3 -21 0
-3 -39 0
-3 -46 0
-3 -63 0
-3 -69 0
-3 -78 0
-3 -83 0
-3 -100 0
-17 -21 0
-17 -39 0
-17 -46 0
-17 -63 0
-17 -69 0
-17 -78 0
-17 -83 0
-17 -100 0
-21 -39 0
-21 -46 0
-21 -63 0
-21 -69 0
-21 -78 0
-21 -83 0
-21 -100 0
-39 -46 0
-39 -63 0
-39 -69 0
-39 -78 0
-39 -83 0
-39 -100 0
-46 -63 0
-46 -69 0
-46 -78 0
-46 -83 0
-46 -100 0
-63 -69 0
-63 -78 0
-63 -83 0
-63 -100 0
-69 -78 0
-69 -83 0
-69 -100 0
-78 -83 0
-78 -100 0
-83 -100 0
-13 -18 0
-13 -27 0
-13 -31 0
-13 -40 0
-13 -47 0
-13 -51 0
-13 -57 0
-13 -70 0
-13 -79 0
-13 -89 0
-13 -104 0
-18 -27 0
-18 -31 0
-18 -40 0
-18 -47 0
-18 -51 0
-18 -57 0
-18 -70 0
-18 -79 0
-18 -89 0
-18 -104 0
-27 -31 0
-27 -40 0
-27 -47 0
-27 -51 0
-27 -57 0
-27 -70 0
-27 -79 0
-27 -89 0
-27 -104 0
-31 -40 0
-31 -47 0
-31 -51 0
-31 -57 0
-31 -70 0
-31 -79 0
-31 -89 0
-31 -104 0
-40 -47 0
-40 -51 0
-40 -57 0
-40 -70 0
-40 -79 0
-40 -89 0
-40 -104 0
-47 -51 0
-47 -57 0
-47 -70 0
-47 -79 0
-47 -89 0
-47 -104 0
-51 -57 0
-51 -70 0
-51 -79 0
-51 -89 0
-51 -104 0
-57 -70 0
-57 -79 0
-57 -89 0
-57 -104 0
-70 -79 0
-70 -89 0
-70 -104 0
-79 -89 0
-79 -104 0
-89 -104 0
-4 -14 0
-4 -22 0
-4 -28 0
-4 -35 0
-4 -52 0
-4 -58 0
-4 -71 0
-4 -84 0
-4 -90 0
-14 -22 0
-14 -28 0
-14 -35 0
-14 -52 0
-14 -58 0
-14 -71 0
-14 -84 0
-14 -90 0
-22 -28 0
-22 -35 0
-22 -52 0
-22 -58 0
-22 -71 0
-22 -84 0
-22 -90 0
-28 -35 0
-28 -52 0
-28 -58 0
-28 -71 0
-28 -84 0
-28 -90 0
-35 -52 0
-35 -58 0
-35 -71 0
-35 -84 0
-35 -90 0
-52 -58 0
-52 -71 0
-52 -84 0
-52 -90 0
-58 -71 0
-58 -84 0
-58 -90 0
-71 -84 0
-71 -90 0
-84 -90 0
-23 -29 0
-23 -64 0
-23 -72 0
-23 -80 0
-23 -85 0
-23 -91 0
-23 -105 0
-29 -64 0
-29 -72 0
-29 -80 0
-29 -85 0
-29 -91 0
-29 -105 0
-64 -72 0
-64 -80 0
-64 -85 0
-64 -91 0
-64 -105 0
-72 -80 0
-72 -85 0
-72 -91 0
-72 -105 0
-80 -85 0
-80 -91 0
-80 -105 0
-85 -91 0
-85 -105 0
-91 -105 0
-5 -10 0
-5 -15 0
-5 -19 0
-5 -32 0
-5 -36 0
-5 -41 0
-5 -48 0
-5 -53 0
-5 -65 0
-5 -73 0
-5 -81 0
-5 -95 0
-10 -15 0
-10 -19 0
-10 -32 0
-10 -36 0
-10 -41 0
-10 -48 0
-10 -53 0
-10 -65 0
-10 -73 0
-10 -81 0
-10 -95 0
-15 -19 0
-15 -32 0
-15 -36 0
-15 -41 0
-15 -48 0
-15 -53 0
-15 -65 0
-15 -73 0
-15 -81 0
-15 -95 0
-19 -32 0
-19 -36 0
-19 -41 0
-19 -48 0
-19 -53 0
-19 -65 0
-19 -73 0
-19 -81 0
-19 -95 0
-32 -36 0
-32 -41 0
-32 -48 0
-32 -53 0
-32 -65 0
-32 -73 0
-32 -81 0
-32 -95 0
-36 -41 0
-36 -48 0
-36 -53 0
-36 -65 0
-36 -73 0
-36 -81 0
-36 -95 0
-41 -48 0
-41 -53 0
-41 -65 0
-41 -73 0
-41 -81 0
-41 -95 0
-48 -53 0
-48 -65 0
-48 -73 0
-48 -81 0
-48 -95 0
-53 -65 0
-53 -73 0
-53 -81 0
-53 -95 0
-65 -73 0
-65 -81 0
-65 -95 0
-73 -81 0
-73 -95 0
-81 -95 0